c description: Random 3-CNF over 15 variables and 60 clauses
p cnf 15 60
-1 -3 5 0
1 10 -15 0
4 -7 9 0
4 -6 -15 0
-10 11 14 0
-6 -11 -15 0
8 12 14 0
-11 12 -13 0
-3 5 -8 0
-4 10 11 0
-1 5 6 0
1 -3 -13 0
-3 -5 -11 0
11 14 15 0
-2 5 10 0
-7 -9 -12 0
-5 -11 -14 0
-2 -11 13 0
-6 -12 15 0
2 -3 -9 0
-6 8 -15 0
-3 5 10 0
6 8 -10 0
5 9 12 0
6 -12 -14 0
-1 12 -14 0
-4 -6 -11 0
11 12 -13 0
4 -9 -14 0
-1 3 -4 0
-1 -3 -12 0
5 13 14 0
-4 -11 15 0
8 10 -13 0
-2 -4 5 0
-4 6 12 0
-7 -10 -14 0
1 7 -8 0
4 6 9 0
1 6 13 0
2 -7 11 0
3 -13 -14 0
-6 -12 -14 0
-8 11 -13 0
-4 -6 7 0
1 -3 -11 0
-2 3 14 0
-2 5 -12 0
-8 10 -13 0
-3 -4 8 0
5 -11 14 0
5 8 11 0
-3 5 15 0
-1 -2 9 0
7 9 -11 0
-7 8 -15 0
-2 -9 10 0
-9 12 -14 0
-3 -5 -6 0
-10 -11 -13 0